# Solution for model PK1
# Objective value = 11
d 11
X1 1
X2 0
X3 0
X4 1
X5 1
X6 1
X7 1
X8 0
X9 0
X10 0
X11 1
X12 0
X13 1
X14 0
X15 0
X16 1
X17 1
X18 0
X19 0
X20 0
X21 0
X22 0
X23 1
X24 1
X25 0
X26 0
X27 1
X28 1
X29 0
X30 0
X31 0
X32 0
X33 0
X34 1
X35 1
X36 0
X37 1
X38 0
X39 0
X40 0
X41 0
X42 0
X43 1
X44 1
X45 1
X46 1
X47 1
X48 0
X49 0
X50 0
X51 1
X52 1
X53 0
X54 1
X55 0
S1 0
T1 6
S2 11
T2 0
S3 8
T3 0
S4 9
T4 0
S5 0
T5 6
S6 7
T6 0
S7 10
T7 0
S8 0
T8 0
S9 9
T9 0
S10 0
T10 2
S11 4
T11 0
S12 0
T12 2
S13 4
T13 0
S14 0
T14 11
S15 0
T15 6
